Minimize
	value: tt

Subject to
tt + 1000 s_1_1 > 0.0
tt - t_1_1 - 1001.000863 s_1_1  + 1.000863 s_1_7  > -999.202817
tt + 1000 s_2_1 > 0.0
tt - t_2_1 - 1000.804426 s_2_1  + 0.804426 s_2_7  > -996.968680
tt + 1000 s_1_2 > 0.0
tt - t_1_2 - 1001.000863 s_1_2  + 1.000863 s_1_8  > -999.035703
tt + 1000 s_2_2 > 0.0
tt - t_2_2 - 1000.804426 s_2_2  + 0.804426 s_2_8  > -996.553909
tt + 1000 s_1_3 > 0.0
tt - t_1_3 - 1001.000863 s_1_3  + 1.000863 s_1_8  > -998.774203
tt + 1000 s_2_3 > 0.0
tt - t_2_3 - 1000.804426 s_2_3  + 0.804426 s_2_8  > -995.640124
tt + 1000 s_1_4 > 0.0
tt - t_1_4 - 1001.842445 s_1_4  + 1.000863 s_1_8  + 0.841583 s_1_3  > -999.425033
tt + 1000 s_2_4 > 0.0
tt - t_2_4 - 1001.490042 s_2_4  + 0.804426 s_2_8  + 0.685616 s_2_3  > -997.100164
tt + 1000 s_1_5 > 0.0
tt - t_1_5 - 1002.001725 s_1_5  + 1.000863 s_1_7  + 1.000863 s_1_8  > -999.056531
tt + 1000 s_2_5 > 0.0
tt - t_2_5 - 1001.608851 s_2_5  + 0.804426 s_2_7  + 0.804426 s_2_8  > -996.894103
tt + 1000 s_1_6 > 0.0
tt - t_1_6 - 1004.207914 s_1_6  + 0.841583 s_1_5  + 0.841583 s_1_3  + 0.841583 s_1_2  + 0.841583 s_1_4  + 0.841583 s_1_1  > -999.823000
tt + 1000 s_2_6 > 0.0
tt - t_2_6 - 1003.428080 s_2_6  + 0.685616 s_2_5  + 0.685616 s_2_3  + 0.685616 s_2_2  + 0.685616 s_2_4  + 0.685616 s_2_1  > -998.231222
tt + 1000 s_1_7 > 0.0
tt - t_1_7 - 1000.000000 s_1_7  > -997.749556
tt + 1000 s_2_7 > 0.0
tt - t_2_7 - 1000.000000 s_2_7  > -997.809756
tt + 1000 s_1_8 > 0.0
tt - t_1_8 - 1000.000000 s_1_8  > -997.631700
tt + 1000 s_2_8 > 0.0
tt - t_2_8 - 1000.000000 s_2_8  > -997.430497
s_1_1 + s_2_1 = 1
s_1_2 + s_2_2 = 1
s_1_3 + s_2_3 = 1
s_1_4 + s_2_4 = 1
s_1_5 + s_2_5 = 1
s_1_6 + s_2_6 = 1
s_1_7 + s_2_7 = 1
s_1_8 + s_2_8 = 1
s_1_1 + s_1_2 + 1000 r_1_1_2 >= 2
- s_1_1 - s_1_2 - 1000 r_1_1_2 >= -1001
t_1_1 - t_1_2 - 1000.000000 u_1_1_2 - 1.000863 s_1_2  + 1.000863 s_1_8  + 2000.000000 r_1_1_2 > -999.035703
s_2_1 + s_2_2 + 1000 r_2_1_2 >= 2
- s_2_1 - s_2_2 - 1000 r_2_1_2 >= -1001
t_2_1 - t_2_2 - 1000.000000 u_2_1_2 - 0.804426 s_2_2  + 0.804426 s_2_8  + 2000.000000 r_2_1_2 > -996.553909
s_1_1 + s_1_3 + 1000 r_1_1_3 >= 2
- s_1_1 - s_1_3 - 1000 r_1_1_3 >= -1001
t_1_1 - t_1_3 - 1000.000000 u_1_1_3 - 1.000863 s_1_3  + 1.000863 s_1_8  + 2000.000000 r_1_1_3 > -998.774203
s_2_1 + s_2_3 + 1000 r_2_1_3 >= 2
- s_2_1 - s_2_3 - 1000 r_2_1_3 >= -1001
t_2_1 - t_2_3 - 1000.000000 u_2_1_3 - 0.804426 s_2_3  + 0.804426 s_2_8  + 2000.000000 r_2_1_3 > -995.640124
s_1_1 + s_1_4 + 1000 r_1_1_4 >= 2
- s_1_1 - s_1_4 - 1000 r_1_1_4 >= -1001
t_1_1 - t_1_4 - 1000.000000 u_1_1_4 - 1.842445 s_1_4  + 1.000863 s_1_8  + 0.841583 s_1_3  + 2000.000000 r_1_1_4 > -999.425033
s_2_1 + s_2_4 + 1000 r_2_1_4 >= 2
- s_2_1 - s_2_4 - 1000 r_2_1_4 >= -1001
t_2_1 - t_2_4 - 1000.000000 u_2_1_4 - 1.490042 s_2_4  + 0.804426 s_2_8  + 0.685616 s_2_3  + 2000.000000 r_2_1_4 > -997.100164
s_1_1 + s_1_5 + 1000 r_1_1_5 >= 2
- s_1_1 - s_1_5 - 1000 r_1_1_5 >= -1001
t_1_1 - t_1_5 - 1000.000000 u_1_1_5 - 2.001725 s_1_5  + 1.000863 s_1_7  + 1.000863 s_1_8  + 2000.000000 r_1_1_5 > -999.056531
s_2_1 + s_2_5 + 1000 r_2_1_5 >= 2
- s_2_1 - s_2_5 - 1000 r_2_1_5 >= -1001
t_2_1 - t_2_5 - 1000.000000 u_2_1_5 - 1.608851 s_2_5  + 0.804426 s_2_7  + 0.804426 s_2_8  + 2000.000000 r_2_1_5 > -996.894103
t_1_6 - t_1_1 - 1001.000863 s_1_1  + 1.000863 s_1_7  > -999.202817
t_1_6 - t_2_1 - 1000.804426 s_2_1  + 0.804426 s_2_7  > -996.968680
t_2_6 - t_1_1 - 1001.000863 s_1_1  + 1.000863 s_1_7  > -999.202817
t_2_6 - t_2_1 - 1000.804426 s_2_1  + 0.804426 s_2_7  > -996.968680
t_1_1 - t_1_7 - 1000.000000 s_1_7  > -997.749556
t_1_1 - t_2_7 - 1000.000000 s_2_7  > -997.809756
t_2_1 - t_1_7 - 1000.000000 s_1_7  > -997.749556
t_2_1 - t_2_7 - 1000.000000 s_2_7  > -997.809756
s_1_1 + s_1_8 + 1000 r_1_1_8 >= 2
- s_1_1 - s_1_8 - 1000 r_1_1_8 >= -1001
t_1_1 - t_1_8 - 1000.000000 u_1_1_8 - 0.000000 s_1_8  + 2000.000000 r_1_1_8 > -997.631700
s_2_1 + s_2_8 + 1000 r_2_1_8 >= 2
- s_2_1 - s_2_8 - 1000 r_2_1_8 >= -1001
t_2_1 - t_2_8 - 1000.000000 u_2_1_8 - 0.000000 s_2_8  + 2000.000000 r_2_1_8 > -997.430497
s_1_2 + s_1_1 + 1000 r_1_1_2 >= 2
- s_1_2 - s_1_1 - 1000 r_1_1_2 >= -1001
t_1_2 - t_1_1 + 1000.000000 u_1_1_2 - 1.000863 s_1_1  + 1.000863 s_1_7  + 2000.000000 r_1_1_2 > 0.797183
s_2_2 + s_2_1 + 1000 r_2_1_2 >= 2
- s_2_2 - s_2_1 - 1000 r_2_1_2 >= -1001
t_2_2 - t_2_1 + 1000.000000 u_2_1_2 - 0.804426 s_2_1  + 0.804426 s_2_7  + 2000.000000 r_2_1_2 > 3.031320
s_1_2 + s_1_3 + 1000 r_1_2_3 >= 2
- s_1_2 - s_1_3 - 1000 r_1_2_3 >= -1001
t_1_2 - t_1_3 - 1000.000000 u_1_2_3 - 1.000863 s_1_3  + 1.000863 s_1_8  + 2000.000000 r_1_2_3 > -998.774203
s_2_2 + s_2_3 + 1000 r_2_2_3 >= 2
- s_2_2 - s_2_3 - 1000 r_2_2_3 >= -1001
t_2_2 - t_2_3 - 1000.000000 u_2_2_3 - 0.804426 s_2_3  + 0.804426 s_2_8  + 2000.000000 r_2_2_3 > -995.640124
s_1_2 + s_1_4 + 1000 r_1_2_4 >= 2
- s_1_2 - s_1_4 - 1000 r_1_2_4 >= -1001
t_1_2 - t_1_4 - 1000.000000 u_1_2_4 - 1.842445 s_1_4  + 1.000863 s_1_8  + 0.841583 s_1_3  + 2000.000000 r_1_2_4 > -999.425033
s_2_2 + s_2_4 + 1000 r_2_2_4 >= 2
- s_2_2 - s_2_4 - 1000 r_2_2_4 >= -1001
t_2_2 - t_2_4 - 1000.000000 u_2_2_4 - 1.490042 s_2_4  + 0.804426 s_2_8  + 0.685616 s_2_3  + 2000.000000 r_2_2_4 > -997.100164
s_1_2 + s_1_5 + 1000 r_1_2_5 >= 2
- s_1_2 - s_1_5 - 1000 r_1_2_5 >= -1001
t_1_2 - t_1_5 - 1000.000000 u_1_2_5 - 2.001725 s_1_5  + 1.000863 s_1_7  + 1.000863 s_1_8  + 2000.000000 r_1_2_5 > -999.056531
s_2_2 + s_2_5 + 1000 r_2_2_5 >= 2
- s_2_2 - s_2_5 - 1000 r_2_2_5 >= -1001
t_2_2 - t_2_5 - 1000.000000 u_2_2_5 - 1.608851 s_2_5  + 0.804426 s_2_7  + 0.804426 s_2_8  + 2000.000000 r_2_2_5 > -996.894103
t_1_6 - t_1_2 - 1001.000863 s_1_2  + 1.000863 s_1_8  > -999.035703
t_1_6 - t_2_2 - 1000.804426 s_2_2  + 0.804426 s_2_8  > -996.553909
t_2_6 - t_1_2 - 1001.000863 s_1_2  + 1.000863 s_1_8  > -999.035703
t_2_6 - t_2_2 - 1000.804426 s_2_2  + 0.804426 s_2_8  > -996.553909
s_1_2 + s_1_7 + 1000 r_1_2_7 >= 2
- s_1_2 - s_1_7 - 1000 r_1_2_7 >= -1001
t_1_2 - t_1_7 - 1000.000000 u_1_2_7 - 0.000000 s_1_7  + 2000.000000 r_1_2_7 > -997.749556
s_2_2 + s_2_7 + 1000 r_2_2_7 >= 2
- s_2_2 - s_2_7 - 1000 r_2_2_7 >= -1001
t_2_2 - t_2_7 - 1000.000000 u_2_2_7 - 0.000000 s_2_7  + 2000.000000 r_2_2_7 > -997.809756
t_1_2 - t_1_8 - 1000.000000 s_1_8  > -997.631700
t_1_2 - t_2_8 - 1000.000000 s_2_8  > -997.430497
t_2_2 - t_1_8 - 1000.000000 s_1_8  > -997.631700
t_2_2 - t_2_8 - 1000.000000 s_2_8  > -997.430497
s_1_3 + s_1_1 + 1000 r_1_1_3 >= 2
- s_1_3 - s_1_1 - 1000 r_1_1_3 >= -1001
t_1_3 - t_1_1 + 1000.000000 u_1_1_3 - 1.000863 s_1_1  + 1.000863 s_1_7  + 2000.000000 r_1_1_3 > 0.797183
s_2_3 + s_2_1 + 1000 r_2_1_3 >= 2
- s_2_3 - s_2_1 - 1000 r_2_1_3 >= -1001
t_2_3 - t_2_1 + 1000.000000 u_2_1_3 - 0.804426 s_2_1  + 0.804426 s_2_7  + 2000.000000 r_2_1_3 > 3.031320
s_1_3 + s_1_2 + 1000 r_1_2_3 >= 2
- s_1_3 - s_1_2 - 1000 r_1_2_3 >= -1001
t_1_3 - t_1_2 + 1000.000000 u_1_2_3 - 1.000863 s_1_2  + 1.000863 s_1_8  + 2000.000000 r_1_2_3 > 0.964297
s_2_3 + s_2_2 + 1000 r_2_2_3 >= 2
- s_2_3 - s_2_2 - 1000 r_2_2_3 >= -1001
t_2_3 - t_2_2 + 1000.000000 u_2_2_3 - 0.804426 s_2_2  + 0.804426 s_2_8  + 2000.000000 r_2_2_3 > 3.446091
t_1_4 - t_1_3 - 1001.000863 s_1_3  + 1.000863 s_1_8  > -998.774203
t_1_4 - t_2_3 - 1000.804426 s_2_3  + 0.804426 s_2_8  > -995.640124
t_2_4 - t_1_3 - 1001.000863 s_1_3  + 1.000863 s_1_8  > -998.774203
t_2_4 - t_2_3 - 1000.804426 s_2_3  + 0.804426 s_2_8  > -995.640124
s_1_3 + s_1_5 + 1000 r_1_3_5 >= 2
- s_1_3 - s_1_5 - 1000 r_1_3_5 >= -1001
t_1_3 - t_1_5 - 1000.000000 u_1_3_5 - 2.001725 s_1_5  + 1.000863 s_1_7  + 1.000863 s_1_8  + 2000.000000 r_1_3_5 > -999.056531
s_2_3 + s_2_5 + 1000 r_2_3_5 >= 2
- s_2_3 - s_2_5 - 1000 r_2_3_5 >= -1001
t_2_3 - t_2_5 - 1000.000000 u_2_3_5 - 1.608851 s_2_5  + 0.804426 s_2_7  + 0.804426 s_2_8  + 2000.000000 r_2_3_5 > -996.894103
t_1_6 - t_1_3 - 1001.000863 s_1_3  + 1.000863 s_1_8  > -998.774203
t_1_6 - t_2_3 - 1000.804426 s_2_3  + 0.804426 s_2_8  > -995.640124
t_2_6 - t_1_3 - 1001.000863 s_1_3  + 1.000863 s_1_8  > -998.774203
t_2_6 - t_2_3 - 1000.804426 s_2_3  + 0.804426 s_2_8  > -995.640124
s_1_3 + s_1_7 + 1000 r_1_3_7 >= 2
- s_1_3 - s_1_7 - 1000 r_1_3_7 >= -1001
t_1_3 - t_1_7 - 1000.000000 u_1_3_7 - 0.000000 s_1_7  + 2000.000000 r_1_3_7 > -997.749556
s_2_3 + s_2_7 + 1000 r_2_3_7 >= 2
- s_2_3 - s_2_7 - 1000 r_2_3_7 >= -1001
t_2_3 - t_2_7 - 1000.000000 u_2_3_7 - 0.000000 s_2_7  + 2000.000000 r_2_3_7 > -997.809756
t_1_3 - t_1_8 - 1000.000000 s_1_8  > -997.631700
t_1_3 - t_2_8 - 1000.000000 s_2_8  > -997.430497
t_2_3 - t_1_8 - 1000.000000 s_1_8  > -997.631700
t_2_3 - t_2_8 - 1000.000000 s_2_8  > -997.430497
s_1_4 + s_1_1 + 1000 r_1_1_4 >= 2
- s_1_4 - s_1_1 - 1000 r_1_1_4 >= -1001
t_1_4 - t_1_1 + 1000.000000 u_1_1_4 - 1.000863 s_1_1  + 1.000863 s_1_7  + 2000.000000 r_1_1_4 > 0.797183
s_2_4 + s_2_1 + 1000 r_2_1_4 >= 2
- s_2_4 - s_2_1 - 1000 r_2_1_4 >= -1001
t_2_4 - t_2_1 + 1000.000000 u_2_1_4 - 0.804426 s_2_1  + 0.804426 s_2_7  + 2000.000000 r_2_1_4 > 3.031320
s_1_4 + s_1_2 + 1000 r_1_2_4 >= 2
- s_1_4 - s_1_2 - 1000 r_1_2_4 >= -1001
t_1_4 - t_1_2 + 1000.000000 u_1_2_4 - 1.000863 s_1_2  + 1.000863 s_1_8  + 2000.000000 r_1_2_4 > 0.964297
s_2_4 + s_2_2 + 1000 r_2_2_4 >= 2
- s_2_4 - s_2_2 - 1000 r_2_2_4 >= -1001
t_2_4 - t_2_2 + 1000.000000 u_2_2_4 - 0.804426 s_2_2  + 0.804426 s_2_8  + 2000.000000 r_2_2_4 > 3.446091
s_1_4 + s_1_5 + 1000 r_1_4_5 >= 2
- s_1_4 - s_1_5 - 1000 r_1_4_5 >= -1001
t_1_4 - t_1_5 - 1000.000000 u_1_4_5 - 2.001725 s_1_5  + 1.000863 s_1_7  + 1.000863 s_1_8  + 2000.000000 r_1_4_5 > -999.056531
s_2_4 + s_2_5 + 1000 r_2_4_5 >= 2
- s_2_4 - s_2_5 - 1000 r_2_4_5 >= -1001
t_2_4 - t_2_5 - 1000.000000 u_2_4_5 - 1.608851 s_2_5  + 0.804426 s_2_7  + 0.804426 s_2_8  + 2000.000000 r_2_4_5 > -996.894103
t_1_6 - t_1_4 - 1001.842445 s_1_4  + 1.000863 s_1_8  + 0.841583 s_1_3  > -999.425033
t_1_6 - t_2_4 - 1001.490042 s_2_4  + 0.804426 s_2_8  + 0.685616 s_2_3  > -997.100164
t_2_6 - t_1_4 - 1001.842445 s_1_4  + 1.000863 s_1_8  + 0.841583 s_1_3  > -999.425033
t_2_6 - t_2_4 - 1001.490042 s_2_4  + 0.804426 s_2_8  + 0.685616 s_2_3  > -997.100164
s_1_4 + s_1_7 + 1000 r_1_4_7 >= 2
- s_1_4 - s_1_7 - 1000 r_1_4_7 >= -1001
t_1_4 - t_1_7 - 1000.000000 u_1_4_7 - 0.000000 s_1_7  + 2000.000000 r_1_4_7 > -997.749556
s_2_4 + s_2_7 + 1000 r_2_4_7 >= 2
- s_2_4 - s_2_7 - 1000 r_2_4_7 >= -1001
t_2_4 - t_2_7 - 1000.000000 u_2_4_7 - 0.000000 s_2_7  + 2000.000000 r_2_4_7 > -997.809756
t_1_4 - t_1_8 - 1000.000000 s_1_8  > -997.631700
t_1_4 - t_2_8 - 1000.000000 s_2_8  > -997.430497
t_2_4 - t_1_8 - 1000.000000 s_1_8  > -997.631700
t_2_4 - t_2_8 - 1000.000000 s_2_8  > -997.430497
s_1_5 + s_1_1 + 1000 r_1_1_5 >= 2
- s_1_5 - s_1_1 - 1000 r_1_1_5 >= -1001
t_1_5 - t_1_1 + 1000.000000 u_1_1_5 - 1.000863 s_1_1  + 1.000863 s_1_7  + 2000.000000 r_1_1_5 > 0.797183
s_2_5 + s_2_1 + 1000 r_2_1_5 >= 2
- s_2_5 - s_2_1 - 1000 r_2_1_5 >= -1001
t_2_5 - t_2_1 + 1000.000000 u_2_1_5 - 0.804426 s_2_1  + 0.804426 s_2_7  + 2000.000000 r_2_1_5 > 3.031320
s_1_5 + s_1_2 + 1000 r_1_2_5 >= 2
- s_1_5 - s_1_2 - 1000 r_1_2_5 >= -1001
t_1_5 - t_1_2 + 1000.000000 u_1_2_5 - 1.000863 s_1_2  + 1.000863 s_1_8  + 2000.000000 r_1_2_5 > 0.964297
s_2_5 + s_2_2 + 1000 r_2_2_5 >= 2
- s_2_5 - s_2_2 - 1000 r_2_2_5 >= -1001
t_2_5 - t_2_2 + 1000.000000 u_2_2_5 - 0.804426 s_2_2  + 0.804426 s_2_8  + 2000.000000 r_2_2_5 > 3.446091
s_1_5 + s_1_3 + 1000 r_1_3_5 >= 2
- s_1_5 - s_1_3 - 1000 r_1_3_5 >= -1001
t_1_5 - t_1_3 + 1000.000000 u_1_3_5 - 1.000863 s_1_3  + 1.000863 s_1_8  + 2000.000000 r_1_3_5 > 1.225797
s_2_5 + s_2_3 + 1000 r_2_3_5 >= 2
- s_2_5 - s_2_3 - 1000 r_2_3_5 >= -1001
t_2_5 - t_2_3 + 1000.000000 u_2_3_5 - 0.804426 s_2_3  + 0.804426 s_2_8  + 2000.000000 r_2_3_5 > 4.359876
s_1_5 + s_1_4 + 1000 r_1_4_5 >= 2
- s_1_5 - s_1_4 - 1000 r_1_4_5 >= -1001
t_1_5 - t_1_4 + 1000.000000 u_1_4_5 - 1.842445 s_1_4  + 1.000863 s_1_8  + 0.841583 s_1_3  + 2000.000000 r_1_4_5 > 0.574967
s_2_5 + s_2_4 + 1000 r_2_4_5 >= 2
- s_2_5 - s_2_4 - 1000 r_2_4_5 >= -1001
t_2_5 - t_2_4 + 1000.000000 u_2_4_5 - 1.490042 s_2_4  + 0.804426 s_2_8  + 0.685616 s_2_3  + 2000.000000 r_2_4_5 > 2.899836
t_1_6 - t_1_5 - 1002.001725 s_1_5  + 1.000863 s_1_7  + 1.000863 s_1_8  > -999.056531
t_1_6 - t_2_5 - 1001.608851 s_2_5  + 0.804426 s_2_7  + 0.804426 s_2_8  > -996.894103
t_2_6 - t_1_5 - 1002.001725 s_1_5  + 1.000863 s_1_7  + 1.000863 s_1_8  > -999.056531
t_2_6 - t_2_5 - 1001.608851 s_2_5  + 0.804426 s_2_7  + 0.804426 s_2_8  > -996.894103
t_1_5 - t_1_7 - 1000.000000 s_1_7  > -997.749556
t_1_5 - t_2_7 - 1000.000000 s_2_7  > -997.809756
t_2_5 - t_1_7 - 1000.000000 s_1_7  > -997.749556
t_2_5 - t_2_7 - 1000.000000 s_2_7  > -997.809756
t_1_5 - t_1_8 - 1000.000000 s_1_8  > -997.631700
t_1_5 - t_2_8 - 1000.000000 s_2_8  > -997.430497
t_2_5 - t_1_8 - 1000.000000 s_1_8  > -997.631700
t_2_5 - t_2_8 - 1000.000000 s_2_8  > -997.430497
s_1_7 + s_1_2 + 1000 r_1_2_7 >= 2
- s_1_7 - s_1_2 - 1000 r_1_2_7 >= -1001
t_1_7 - t_1_2 + 1000.000000 u_1_2_7 - 1.000863 s_1_2  + 1.000863 s_1_8  + 2000.000000 r_1_2_7 > 0.964297
s_2_7 + s_2_2 + 1000 r_2_2_7 >= 2
- s_2_7 - s_2_2 - 1000 r_2_2_7 >= -1001
t_2_7 - t_2_2 + 1000.000000 u_2_2_7 - 0.804426 s_2_2  + 0.804426 s_2_8  + 2000.000000 r_2_2_7 > 3.446091
s_1_7 + s_1_3 + 1000 r_1_3_7 >= 2
- s_1_7 - s_1_3 - 1000 r_1_3_7 >= -1001
t_1_7 - t_1_3 + 1000.000000 u_1_3_7 - 1.000863 s_1_3  + 1.000863 s_1_8  + 2000.000000 r_1_3_7 > 1.225797
s_2_7 + s_2_3 + 1000 r_2_3_7 >= 2
- s_2_7 - s_2_3 - 1000 r_2_3_7 >= -1001
t_2_7 - t_2_3 + 1000.000000 u_2_3_7 - 0.804426 s_2_3  + 0.804426 s_2_8  + 2000.000000 r_2_3_7 > 4.359876
s_1_7 + s_1_4 + 1000 r_1_4_7 >= 2
- s_1_7 - s_1_4 - 1000 r_1_4_7 >= -1001
t_1_7 - t_1_4 + 1000.000000 u_1_4_7 - 1.842445 s_1_4  + 1.000863 s_1_8  + 0.841583 s_1_3  + 2000.000000 r_1_4_7 > 0.574967
s_2_7 + s_2_4 + 1000 r_2_4_7 >= 2
- s_2_7 - s_2_4 - 1000 r_2_4_7 >= -1001
t_2_7 - t_2_4 + 1000.000000 u_2_4_7 - 1.490042 s_2_4  + 0.804426 s_2_8  + 0.685616 s_2_3  + 2000.000000 r_2_4_7 > 2.899836
s_1_7 + s_1_8 + 1000 r_1_7_8 >= 2
- s_1_7 - s_1_8 - 1000 r_1_7_8 >= -1001
t_1_7 - t_1_8 - 1000.000000 u_1_7_8 - 0.000000 s_1_8  + 2000.000000 r_1_7_8 > -997.631700
s_2_7 + s_2_8 + 1000 r_2_7_8 >= 2
- s_2_7 - s_2_8 - 1000 r_2_7_8 >= -1001
t_2_7 - t_2_8 - 1000.000000 u_2_7_8 - 0.000000 s_2_8  + 2000.000000 r_2_7_8 > -997.430497
s_1_8 + s_1_1 + 1000 r_1_1_8 >= 2
- s_1_8 - s_1_1 - 1000 r_1_1_8 >= -1001
t_1_8 - t_1_1 + 1000.000000 u_1_1_8 - 1.000863 s_1_1  + 1.000863 s_1_7  + 2000.000000 r_1_1_8 > 0.797183
s_2_8 + s_2_1 + 1000 r_2_1_8 >= 2
- s_2_8 - s_2_1 - 1000 r_2_1_8 >= -1001
t_2_8 - t_2_1 + 1000.000000 u_2_1_8 - 0.804426 s_2_1  + 0.804426 s_2_7  + 2000.000000 r_2_1_8 > 3.031320
s_1_8 + s_1_7 + 1000 r_1_7_8 >= 2
- s_1_8 - s_1_7 - 1000 r_1_7_8 >= -1001
t_1_8 - t_1_7 + 1000.000000 u_1_7_8 - 0.000000 s_1_7  + 2000.000000 r_1_7_8 > 2.250444
s_2_8 + s_2_7 + 1000 r_2_7_8 >= 2
- s_2_8 - s_2_7 - 1000 r_2_7_8 >= -1001
t_2_8 - t_2_7 + 1000.000000 u_2_7_8 - 0.000000 s_2_7  + 2000.000000 r_2_7_8 > 2.190244
Binary
s_1_1
s_2_1
s_1_2
s_2_2
s_1_3
s_2_3
s_1_4
s_2_4
s_1_5
s_2_5
s_1_6
s_2_6
s_1_7
s_2_7
s_1_8
s_2_8
u_1_1_2
r_1_1_2
u_2_1_2
r_2_1_2
u_1_1_3
r_1_1_3
u_2_1_3
r_2_1_3
u_1_1_4
r_1_1_4
u_2_1_4
r_2_1_4
u_1_1_5
r_1_1_5
u_2_1_5
r_2_1_5
u_1_1_8
r_1_1_8
u_2_1_8
r_2_1_8
u_1_2_3
r_1_2_3
u_2_2_3
r_2_2_3
u_1_2_4
r_1_2_4
u_2_2_4
r_2_2_4
u_1_2_5
r_1_2_5
u_2_2_5
r_2_2_5
u_1_2_7
r_1_2_7
u_2_2_7
r_2_2_7
u_1_3_5
r_1_3_5
u_2_3_5
r_2_3_5
u_1_3_7
r_1_3_7
u_2_3_7
r_2_3_7
u_1_4_5
r_1_4_5
u_2_4_5
r_2_4_5
u_1_4_7
r_1_4_7
u_2_4_7
r_2_4_7
u_1_7_8
r_1_7_8
u_2_7_8
r_2_7_8

End
